6434270413037533120504,7,1,2,05,8,1,2,03,3,1,2,015,10,1,2,02,9,1,2,03,4,1,2,013,8,1,2,014,1,1,2,04,15,1,2,01,5,1,2,05,9,1,2,014,11,1,2,03,6,1,2,01,9,1,2,08,10,1,2,014,10,1,2,05,3,1,2,012,12,1,2,05,10,1,2,07,15,1,2,05,15,1,2,08,2,1,2,014,7,1,2,05,6,1,2,015,6,1,2,02,8,1,2,015,15,1,2,015,1,1,2,09,13,1,2,07,4,1,2,011,1,1,2,01,8,1,2,011,4,1,2,07,3,1,2,04,12,1,2,014,13,1,2,09,13,1,2,014,4,1,2,014,2,1,2,07,14,1,2,010,1,1,2,03,4,1,2,02,9,1,2,02,4,1,2,09,14,1,2,03,5,1,2,013,10,1,2,07,7,1,2,02,11,1,2,02,6,1,2,0